NAME          
ROWS
 N  OBJ
 L  c1_1
 L  c2_1
 L  c3_1
 L  c4_1
 L  c5_1
 L  c6_1
 L  c7_1
 L  c8_1
 L  c9_1
 L  c10_1
 L  c11_1
 L  c12_1
 L  c13_1
 L  c14_1
 L  c15_1
 L  c16_1
 L  c17_1
 L  c18_1
 L  c19_1
 L  c20_1
 L  c21_1
 L  c22
 L  c23
 L  c24
 L  c25
 L  c26
 L  c27
 L  c28
 L  c29
 L  c30
 L  c31
 L  c32
 L  c33
 L  c34
 L  c35
 L  c36
 L  c37
 L  c38
 L  c39
 L  c40
 L  c41
 L  c42
 L  c43
 L  c44
 L  c45
 L  c46
 L  c47
 L  c48
 L  c49
 L  c50
 L  c51
 L  c52
 L  c53
 L  c54
 L  c55
 L  c56
 L  c57
 L  c58
 L  c59
 L  c60
 L  c61
 L  c62
 L  c63
 L  c64
 L  c65
 L  c66
 L  c67
 L  c68
 L  c69
 L  c70
 L  c71
 L  c72
 L  c73
 L  c74
 L  c75
 L  c76
 L  c77
 L  c78
 L  c79
 L  c80
 L  c81
 L  c82
 L  c83
 L  c84
 L  c85
 L  c86
 L  c87
 L  c88
 L  c89
 L  c90
 L  c91
 L  c92
 L  c93
 L  c94
 L  c95
 L  c96
 L  c97
 L  c98
 L  c99
 L  c100
 E  c1
 E  c2
 E  c3
 E  c4
 E  c5
 E  c6
 E  c7
 E  c8
 E  c9
 E  c10
 E  c11
 E  c12
 E  c13
 E  c14
 E  c15
 E  c16
 E  c17
 E  c18
 E  c19
 E  c20
 E  c21
COLUMNS
    x1        c1_1      1
    x1        c26       -1
    x2        c2_1      1
    x2        c27       -1
    x3        c3_1      1
    x3        c28       -1
    x4        c4_1      1
    x4        c29       -1
    x5        c5_1      1
    x5        c30       -1
    x6        c6_1      1
    x6        c31       -1
    x7        c7_1      1
    x7        c32       -1
    x8        c8_1      1
    x8        c33       -1
    x9        c9_1      1
    x9        c34       -1
    x10       c10_1     1
    x10       c35       -1
    x11       c11_1     1
    x11       c36       -1
    x12       c12_1     1
    x12       c37       -1
    x13       c13_1     1
    x13       c38       -1
    x14       c14_1     1
    x14       c39       -1
    x15       c15_1     1
    x15       c40       -1
    x16       c16_1     1
    x16       c41       -1
    x17       c17_1     1
    x17       c42       -1
    x18       c18_1     1
    x18       c43       -1
    x19       c19_1     1
    x19       c44       -1
    x20       c20_1     1
    x20       c45       -1
    x21       c21_1     1
    x21       c46       -1
    x22       c22       1
    x22       c47       -1
    x23       c23       1
    x23       c48       -1
    x24       c24       1
    x24       c49       -1
    x25       c25       1
    x25       c50       -1
    x26       c51       1
    x26       c76       -1
    x27       c52       1
    x27       c77       -1
    x28       c53       1
    x28       c78       -1
    x29       c54       1
    x29       c79       -1
    x30       c55       1
    x30       c80       -1
    x31       c56       1
    x31       c81       -1
    x32       c57       1
    x32       c82       -1
    x33       c58       1
    x33       c83       -1
    x34       c59       1
    x34       c84       -1
    x35       c60       1
    x35       c85       -1
    x36       c61       1
    x36       c86       -1
    x37       c62       1
    x37       c87       -1
    x38       c63       1
    x38       c88       -1
    x39       c64       1
    x39       c89       -1
    x40       c65       1
    x40       c90       -1
    x41       c66       1
    x41       c91       -1
    x42       c67       1
    x42       c92       -1
    x43       c68       1
    x43       c93       -1
    x44       c69       1
    x44       c94       -1
    x45       c70       1
    x45       c95       -1
    x46       c71       1
    x46       c96       -1
    x47       c72       1
    x47       c97       -1
    x48       c73       1
    x48       c98       -1
    x49       c74       1
    x49       c99       -1
    x50       c75       1
    x50       c100      -1
    MARKER    'MARKER'                 'INTORG'
    x51       c2_1      -1
    x51       c27       1
    x51       c1        1
    x51       c6        1
    x52       c24       -1
    x52       c49       1
    x52       c5        1
    x52       c10       1
    MARKER    'MARKER'                 'INTEND'
    x53       c26       1
    x53       c27       1
    x53       c28       1
    x53       c29       1
    x53       c30       1
    x53       c31       1
    x53       c32       1
    x53       c33       1
    x53       c34       1
    x53       c35       1
    x53       c36       1
    x53       c37       1
    x53       c38       1
    x53       c39       1
    x53       c40       1
    x53       c41       1
    x53       c42       1
    x53       c43       1
    x53       c44       1
    x53       c45       1
    x53       c46       1
    x53       c47       1
    x53       c48       1
    x53       c49       1
    x53       c50       1
    x53       c21       1
    x54       c76       1
    x54       c77       1
    x54       c78       1
    x54       c79       1
    x54       c80       1
    x54       c81       1
    x54       c82       1
    x54       c83       1
    x54       c84       1
    x54       c85       1
    x54       c86       1
    x54       c87       1
    x54       c88       1
    x54       c89       1
    x54       c90       1
    x54       c91       1
    x54       c92       1
    x54       c93       1
    x54       c94       1
    x54       c95       1
    x54       c96       1
    x54       c97       1
    x54       c98       1
    x54       c99       1
    x54       c100      1
    x54       c21       1
    MARKER    'MARKER'                 'INTORG'
    x55       c6_1      -1
    x55       c31       1
    x55       c2        1
    x55       c7        1
    x56       c10_1     -1
    x56       c35       1
    x56       c2        1
    x56       c7        1
    x57       c22       -1
    x57       c47       1
    x57       c5        1
    x57       c10       1
    x58       c25       -1
    x58       c50       1
    x58       c5        1
    x58       c10       1
    x59       c1_1      -1
    x59       c26       1
    x59       c1        1
    x59       c6        1
    x60       c3_1      -1
    x60       c28       1
    x60       c1        1
    x60       c6        1
    x61       c4_1      -1
    x61       c29       1
    x61       c1        1
    x61       c6        1
    x62       c5_1      -1
    x62       c30       1
    x62       c1        1
    x62       c6        1
    x63       c7_1      -1
    x63       c32       1
    x63       c2        1
    x63       c7        1
    x64       c8_1      -1
    x64       c33       1
    x64       c2        1
    x64       c7        1
    x65       c9_1      -1
    x65       c34       1
    x65       c2        1
    x65       c7        1
    x66       c11_1     -1
    x66       c36       1
    x66       c3        1
    x66       c8        1
    x67       c12_1     -1
    x67       c37       1
    x67       c3        1
    x67       c8        1
    x68       c13_1     -1
    x68       c38       1
    x68       c3        1
    x68       c8        1
    x69       c14_1     -1
    x69       c39       1
    x69       c3        1
    x69       c8        1
    x70       c15_1     -1
    x70       c40       1
    x70       c3        1
    x70       c8        1
    x71       c16_1     -1
    x71       c41       1
    x71       c4        1
    x71       c9        1
    x72       c17_1     -1
    x72       c42       1
    x72       c4        1
    x72       c9        1
    x73       c18_1     -1
    x73       c43       1
    x73       c4        1
    x73       c9        1
    x74       c19_1     -1
    x74       c44       1
    x74       c4        1
    x74       c9        1
    x75       c20_1     -1
    x75       c45       1
    x75       c4        1
    x75       c9        1
    x76       c21_1     -1
    x76       c46       1
    x76       c5        1
    x76       c10       1
    x77       c23       -1
    x77       c48       1
    x77       c5        1
    x77       c10       1
    x78       c51       -1
    x78       c76       1
    x78       c11       1
    x78       c16       1
    x79       c52       -1
    x79       c77       1
    x79       c11       1
    x79       c16       1
    x80       c53       -1
    x80       c78       1
    x80       c11       1
    x80       c16       1
    x81       c54       -1
    x81       c79       1
    x81       c11       1
    x81       c16       1
    x82       c55       -1
    x82       c80       1
    x82       c11       1
    x82       c16       1
    x83       c56       -1
    x83       c81       1
    x83       c12       1
    x83       c17       1
    x84       c57       -1
    x84       c82       1
    x84       c12       1
    x84       c17       1
    x85       c58       -1
    x85       c83       1
    x85       c12       1
    x85       c17       1
    x86       c59       -1
    x86       c84       1
    x86       c12       1
    x86       c17       1
    x87       c60       -1
    x87       c85       1
    x87       c12       1
    x87       c17       1
    x88       c61       -1
    x88       c86       1
    x88       c13       1
    x88       c18       1
    x89       c62       -1
    x89       c87       1
    x89       c13       1
    x89       c18       1
    x90       c63       -1
    x90       c88       1
    x90       c13       1
    x90       c18       1
    x91       c64       -1
    x91       c89       1
    x91       c13       1
    x91       c18       1
    x92       c65       -1
    x92       c90       1
    x92       c13       1
    x92       c18       1
    x93       c66       -1
    x93       c91       1
    x93       c14       1
    x93       c19       1
    x94       c67       -1
    x94       c92       1
    x94       c14       1
    x94       c19       1
    x95       c68       -1
    x95       c93       1
    x95       c14       1
    x95       c19       1
    x96       c69       -1
    x96       c94       1
    x96       c14       1
    x96       c19       1
    x97       c70       -1
    x97       c95       1
    x97       c14       1
    x97       c19       1
    x98       c71       -1
    x98       c96       1
    x98       c15       1
    x98       c20       1
    x99       c72       -1
    x99       c97       1
    x99       c15       1
    x99       c20       1
    x100      c73       -1
    x100      c98       1
    x100      c15       1
    x100      c20       1
    x101      c74       -1
    x101      c99       1
    x101      c15       1
    x101      c20       1
    x102      c75       -1
    x102      c100      1
    x102      c15       1
    x102      c20       1
RHS
    rhs       c1_1      0
    rhs       c2_1      0
    rhs       c3_1      0
    rhs       c4_1      0
    rhs       c5_1      0
    rhs       c6_1      0
    rhs       c7_1      0
    rhs       c8_1      0
    rhs       c9_1      0
    rhs       c10_1     0
    rhs       c11_1     0
    rhs       c12_1     0
    rhs       c13_1     0
    rhs       c14_1     0
    rhs       c15_1     0
    rhs       c16_1     0
    rhs       c17_1     0
    rhs       c18_1     0
    rhs       c19_1     0
    rhs       c20_1     0
    rhs       c21_1     0
    rhs       c22       0
    rhs       c23       0
    rhs       c24       0
    rhs       c25       0
    rhs       c26       1
    rhs       c27       1
    rhs       c28       1
    rhs       c29       1
    rhs       c30       1
    rhs       c31       1
    rhs       c32       1
    rhs       c33       1
    rhs       c34       1
    rhs       c35       1
    rhs       c36       1
    rhs       c37       1
    rhs       c38       1
    rhs       c39       1
    rhs       c40       1
    rhs       c41       1
    rhs       c42       1
    rhs       c43       1
    rhs       c44       1
    rhs       c45       1
    rhs       c46       1
    rhs       c47       1
    rhs       c48       1
    rhs       c49       1
    rhs       c50       1
    rhs       c51       0
    rhs       c52       0
    rhs       c53       0
    rhs       c54       0
    rhs       c55       0
    rhs       c56       0
    rhs       c57       0
    rhs       c58       0
    rhs       c59       0
    rhs       c60       0
    rhs       c61       0
    rhs       c62       0
    rhs       c63       0
    rhs       c64       0
    rhs       c65       0
    rhs       c66       0
    rhs       c67       0
    rhs       c68       0
    rhs       c69       0
    rhs       c70       0
    rhs       c71       0
    rhs       c72       0
    rhs       c73       0
    rhs       c74       0
    rhs       c75       0
    rhs       c76       1
    rhs       c77       1
    rhs       c78       1
    rhs       c79       1
    rhs       c80       1
    rhs       c81       1
    rhs       c82       1
    rhs       c83       1
    rhs       c84       1
    rhs       c85       1
    rhs       c86       1
    rhs       c87       1
    rhs       c88       1
    rhs       c89       1
    rhs       c90       1
    rhs       c91       1
    rhs       c92       1
    rhs       c93       1
    rhs       c94       1
    rhs       c95       1
    rhs       c96       1
    rhs       c97       1
    rhs       c98       1
    rhs       c99       1
    rhs       c100      1
    rhs       c1        1
    rhs       c2        1
    rhs       c3        1
    rhs       c4        1
    rhs       c5        1
    rhs       c6        1
    rhs       c7        1
    rhs       c8        1
    rhs       c9        1
    rhs       c10       1
    rhs       c11       1
    rhs       c12       1
    rhs       c13       1
    rhs       c14       1
    rhs       c15       1
    rhs       c16       1
    rhs       c17       1
    rhs       c18       1
    rhs       c19       1
    rhs       c20       1
    rhs       c21       1
RANGES
BOUNDS
 LO bounds    x1        0
 UP bounds    x1        1
 LO bounds    x2        0
 UP bounds    x2        1
 LO bounds    x3        0
 UP bounds    x3        1
 LO bounds    x4        0
 UP bounds    x4        1
 LO bounds    x5        0
 UP bounds    x5        1
 LO bounds    x6        0
 UP bounds    x6        1
 LO bounds    x7        0
 UP bounds    x7        1
 LO bounds    x8        0
 UP bounds    x8        1
 LO bounds    x9        0
 UP bounds    x9        1
 LO bounds    x10       0
 UP bounds    x10       1
 LO bounds    x11       0
 UP bounds    x11       1
 LO bounds    x12       0
 UP bounds    x12       1
 LO bounds    x13       0
 UP bounds    x13       1
 LO bounds    x14       0
 UP bounds    x14       1
 LO bounds    x15       0
 UP bounds    x15       1
 LO bounds    x16       0
 UP bounds    x16       1
 LO bounds    x17       0
 UP bounds    x17       1
 LO bounds    x18       0
 UP bounds    x18       1
 LO bounds    x19       0
 UP bounds    x19       1
 LO bounds    x20       0
 UP bounds    x20       1
 LO bounds    x21       0
 UP bounds    x21       1
 LO bounds    x22       0
 UP bounds    x22       1
 LO bounds    x23       0
 UP bounds    x23       1
 LO bounds    x24       0
 UP bounds    x24       1
 LO bounds    x25       0
 UP bounds    x25       1
 LO bounds    x26       0
 UP bounds    x26       1
 LO bounds    x27       0
 UP bounds    x27       1
 LO bounds    x28       0
 UP bounds    x28       1
 LO bounds    x29       0
 UP bounds    x29       1
 LO bounds    x30       0
 UP bounds    x30       1
 LO bounds    x31       0
 UP bounds    x31       1
 LO bounds    x32       0
 UP bounds    x32       1
 LO bounds    x33       0
 UP bounds    x33       1
 LO bounds    x34       0
 UP bounds    x34       1
 LO bounds    x35       0
 UP bounds    x35       1
 LO bounds    x36       0
 UP bounds    x36       1
 LO bounds    x37       0
 UP bounds    x37       1
 LO bounds    x38       0
 UP bounds    x38       1
 LO bounds    x39       0
 UP bounds    x39       1
 LO bounds    x40       0
 UP bounds    x40       1
 LO bounds    x41       0
 UP bounds    x41       1
 LO bounds    x42       0
 UP bounds    x42       1
 LO bounds    x43       0
 UP bounds    x43       1
 LO bounds    x44       0
 UP bounds    x44       1
 LO bounds    x45       0
 UP bounds    x45       1
 LO bounds    x46       0
 UP bounds    x46       1
 LO bounds    x47       0
 UP bounds    x47       1
 LO bounds    x48       0
 UP bounds    x48       1
 LO bounds    x49       0
 UP bounds    x49       1
 LO bounds    x50       0
 UP bounds    x50       1
 BV bounds    x51
 LO bounds    x51       1
 PL bounds    x51
 BV bounds    x52
 LO bounds    x52       1
 PL bounds    x52
 LO bounds    x53       0
 UP bounds    x53       1
 LO bounds    x54       0
 UP bounds    x54       1
 BV bounds    x55
 MI bounds    x55
 UP bounds    x55       0
 BV bounds    x56
 MI bounds    x56
 UP bounds    x56       0
 BV bounds    x57
 MI bounds    x57
 UP bounds    x57       0
 BV bounds    x58
 MI bounds    x58
 UP bounds    x58       0
 BV bounds    x59
 BV bounds    x60
 BV bounds    x61
 BV bounds    x62
 BV bounds    x63
 BV bounds    x64
 BV bounds    x65
 BV bounds    x66
 BV bounds    x67
 BV bounds    x68
 BV bounds    x69
 BV bounds    x70
 BV bounds    x71
 BV bounds    x72
 BV bounds    x73
 BV bounds    x74
 BV bounds    x75
 BV bounds    x76
 BV bounds    x77
 BV bounds    x78
 BV bounds    x79
 BV bounds    x80
 BV bounds    x81
 BV bounds    x82
 BV bounds    x83
 BV bounds    x84
 BV bounds    x85
 BV bounds    x86
 BV bounds    x87
 BV bounds    x88
 BV bounds    x89
 BV bounds    x90
 BV bounds    x91
 BV bounds    x92
 BV bounds    x93
 BV bounds    x94
 BV bounds    x95
 BV bounds    x96
 BV bounds    x97
 BV bounds    x98
 BV bounds    x99
 BV bounds    x100
 BV bounds    x101
 BV bounds    x102
ENDATA
